; Compiling UoM
(set-option :print-success true)
(set-option :produce-models true)
(set-option :interactive-mode true)
(set-option :produce-assertions true)
(set-option :produce-models true)
(set-option :produce-assignments true)
(set-option :produce-proofs true)
(set-option :produce-unsat-assumptions true)
(set-option :produce-unsat-cores true)
(declare-const one Int)
(assert
   (= one 1))
(declare-const
   base
   (Array String Int))
(declare-const
   enc
   (Array String Int))
(declare-const
   exp
   (Array String Int))
(assert
   (= enc base))
(echo "solver-start-cycle-1")
(echo "solver-finish-cycle-1")
(echo "solver-start-cycle-2")
(echo "solver-finish-cycle-2")
(echo "solver-start-cycle-3")
(echo "solver-finish-cycle-3")
(echo "solver-start-cycle-4")
(echo "solver-finish-cycle-4")
(echo "solver-start-cycle-5")

; GIVENS (GHC style)
; []

; WANTEDS (GHC style)
; [WD] hole{co_aYh} {2}:: (((Base "m" *: One) /: (Base "s" *: One))
;                          *: (Base "s" *: One))
;                         ~# (Base "m" *: One) (CNonCanonical)

; GIVENS (Thoralf style)
; []

; WANTEDS (Thoralf style)
; (*: [/: [*: [Base ["m"],One []],*: [Base ["s"],One []]],*: [Base ["s"],One []]],*: [Base ["m"],One []])

(echo "givens-start-cycle-5")
; GIVENS (conversions)
;      [WD] hole{co_aYh} {2}:: (((Base "m" *: One)
;                                /: (Base "s" *: One))
;                               *: (Base "s" *: One))
;                              ~# (Base "m" *: One) (CNonCanonical)
;  =>  (=
;    (
;      (_
;         map
;         (+
;            (Int Int)
;            Int))
;      (
;        (_
;           map
;           (-
;              (Int Int)
;              Int))
;        (
;          (_
;             map
;             (+
;                (Int Int)
;                Int))
;          (store base "m" one)
;          (
;            (as
;               const
;               (Array String Int))
;            0))
;        (
;          (_
;             map
;             (+
;                (Int Int)
;                Int))
;          (store base "s" one)
;          (
;            (as
;               const
;               (Array String Int))
;            0)))
;      (
;        (_
;           map
;           (+
;              (Int Int)
;              Int))
;        (store base "s" one)
;        (
;          (as
;             const
;             (Array String Int))
;          0)))
;    (
;      (_
;         map
;         (+
;            (Int Int)
;            Int))
;      (store base "m" one)
;      (
;        (as
;           const
;           (Array String Int))
;        0)))

; GIVENS (names)
(push 1)
; DECS1 (seen) 
; DECS1 (unseen) 
(check-sat)
; sat
(echo "givens-finish-cycle-5")
(echo "wanteds-start-cycle-5")
; WANTEDS (conversions)
;      [WD] hole{co_aYh} {2}:: (((Base "m" *: One)
;                                /: (Base "s" *: One))
;                               *: (Base "s" *: One))
;                              ~# (Base "m" *: One) (CNonCanonical)
;  =>  (=
;    (
;      (_
;         map
;         (+
;            (Int Int)
;            Int))
;      (
;        (_
;           map
;           (-
;              (Int Int)
;              Int))
;        (
;          (_
;             map
;             (+
;                (Int Int)
;                Int))
;          (store base "m" one)
;          (
;            (as
;               const
;               (Array String Int))
;            0))
;        (
;          (_
;             map
;             (+
;                (Int Int)
;                Int))
;          (store base "s" one)
;          (
;            (as
;               const
;               (Array String Int))
;            0)))
;      (
;        (_
;           map
;           (+
;              (Int Int)
;              Int))
;        (store base "s" one)
;        (
;          (as
;             const
;             (Array String Int))
;          0)))
;    (
;      (_
;         map
;         (+
;            (Int Int)
;            Int))
;      (store base "m" one)
;      (
;        (as
;           const
;           (Array String Int))
;        0)))

; WANTEDS (names)
; DECS2 (seen) 
; DECS2 (unseen) 
(assert
   (!
      (not
         (=
            (
              (_
                 map
                 (+
                    (Int Int)
                    Int))
              (
                (_
                   map
                   (-
                      (Int Int)
                      Int))
                (
                  (_
                     map
                     (+
                        (Int Int)
                        Int))
                  (store base "m" one)
                  (
                    (as
                       const
                       (Array String Int))
                    0))
                (
                  (_
                     map
                     (+
                        (Int Int)
                        Int))
                  (store base "s" one)
                  (
                    (as
                       const
                       (Array String Int))
                    0)))
              (
                (_
                   map
                   (+
                      (Int Int)
                      Int))
                (store base "s" one)
                (
                  (as
                     const
                     (Array String Int))
                  0)))
            (
              (_
                 map
                 (+
                    (Int Int)
                    Int))
              (store base "m" one)
              (
                (as
                   const
                   (Array String Int))
                0))))
      :named
      wanted-5))
(check-sat)
; unsat
(echo "wanteds-finish-cycle-5")
(get-assertions)
; (
;   (= one 1)
;   (= enc base)
;   (!
;      (not
;         (=
;            (
;              (_
;                 map
;                 (+
;                    (Int Int)
;                    Int))
;              (
;                (_
;                   map
;                   (-
;                      (Int Int)
;                      Int))
;                (
;                  (_
;                     map
;                     (+
;                        (Int Int)
;                        Int))
;                  (store base "m" one)
;                  (
;                    (as
;                       const
;                       (Array String Int))
;                    0))
;                (
;                  (_
;                     map
;                     (+
;                        (Int Int)
;                        Int))
;                  (store base "s" one)
;                  (
;                    (as
;                       const
;                       (Array String Int))
;                    0)))
;              (
;                (_
;                   map
;                   (+
;                      (Int Int)
;                      Int))
;                (store base "s" one)
;                (
;                  (as
;                     const
;                     (Array String Int))
;                  0)))
;            (
;              (_
;                 map
;                 (+
;                    (Int Int)
;                    Int))
;              (store base "m" one)
;              (
;                (as
;                   const
;                   (Array String Int))
;                0))))
;      :named
;      wanted-5))
(get-unsat-core)
; (wanted-5)
(pop 1)
(echo "solver-finish-cycle-5")
(echo "solver-start-cycle-6")
(echo "solver-finish-cycle-6")
(echo "solver-start-cycle-7")
(echo "solver-finish-cycle-7")
(echo "solver-start-cycle-8")
(echo "solver-finish-cycle-8")
(echo "solver-start-cycle-9")

; GIVENS (GHC style)
; [G] co_aYs {1}:: ((Base "m" *: One) /: (Base "s" *: One))
;                  ~# mps_aXf[sk:1] (CEqCan)

; WANTEDS (GHC style)
; [WD] hole{co_aYx} {1}:: (Base "m" *: One)
;                         ~# (mps_aXf[sk:1] *: (Base "s" *: One)) (CNonCanonical)

; GIVENS (Thoralf style)
; (/: [*: [Base ["m"],One []],*: [Base ["s"],One []]],aXf)

; WANTEDS (Thoralf style)
; (*: [Base ["m"],One []],*: [aXf,*: [Base ["s"],One []]])

(echo "givens-start-cycle-9")
; GIVENS (conversions)
;      [WD] hole{co_aYx} {1}:: (Base "m" *: One)
;                              ~# (mps_aXf[sk:1] *: (Base "s" *: One)) (CNonCanonical)
;  =>  (=
;    (
;      (_
;         map
;         (+
;            (Int Int)
;            Int))
;      (store base "m" one)
;      (
;        (as
;           const
;           (Array String Int))
;        0))
;    (
;      (_
;         map
;         (+
;            (Int Int)
;            Int))
;      aXf
;      (
;        (_
;           map
;           (+
;              (Int Int)
;              Int))
;        (store base "s" one)
;        (
;          (as
;             const
;             (Array String Int))
;          0))))

; GIVENS (names)
;  aXf  <=  mps_aXf[sk:1]
(push 1)
; DECS1 (seen) 
; DECS1 (unseen) 
; (declare-const aXf (Array String Int))
(declare-const
   aXf
   (Array String Int))
(assert
   (!
      (=
         (
           (_
              map
              (-
                 (Int Int)
                 Int))
           (
             (_
                map
                (+
                   (Int Int)
                   Int))
             (store base "m" one)
             (
               (as
                  const
                  (Array String Int))
               0))
           (
             (_
                map
                (+
                   (Int Int)
                   Int))
             (store base "s" one)
             (
               (as
                  const
                  (Array String Int))
               0)))
         aXf)
      :named
      given-9.1))
(check-sat)
; sat
(echo "givens-finish-cycle-9")
(echo "wanteds-start-cycle-9")
; WANTEDS (conversions)
;      [WD] hole{co_aYx} {1}:: (Base "m" *: One)
;                              ~# (mps_aXf[sk:1] *: (Base "s" *: One)) (CNonCanonical)
;  =>  (=
;    (
;      (_
;         map
;         (+
;            (Int Int)
;            Int))
;      (store base "m" one)
;      (
;        (as
;           const
;           (Array String Int))
;        0))
;    (
;      (_
;         map
;         (+
;            (Int Int)
;            Int))
;      aXf
;      (
;        (_
;           map
;           (+
;              (Int Int)
;              Int))
;        (store base "s" one)
;        (
;          (as
;             const
;             (Array String Int))
;          0))))

; WANTEDS (names)
;  aXf  <=  mps_aXf[sk:1]
; DECS2 (seen) 
; DECS2 (unseen) 
(assert
   (!
      (not
         (=
            (
              (_
                 map
                 (+
                    (Int Int)
                    Int))
              (store base "m" one)
              (
                (as
                   const
                   (Array String Int))
                0))
            (
              (_
                 map
                 (+
                    (Int Int)
                    Int))
              aXf
              (
                (_
                   map
                   (+
                      (Int Int)
                      Int))
                (store base "s" one)
                (
                  (as
                     const
                     (Array String Int))
                  0)))))
      :named
      wanted-9))
(check-sat)
; unsat
(echo "wanteds-finish-cycle-9")
(get-assertions)
; (
;   (= one 1)
;   (= enc base)
;   (!
;      (=
;         (
;           (_
;              map
;              (-
;                 (Int Int)
;                 Int))
;           (
;             (_
;                map
;                (+
;                   (Int Int)
;                   Int))
;             (store base "m" one)
;             (
;               (as
;                  const
;                  (Array String Int))
;               0))
;           (
;             (_
;                map
;                (+
;                   (Int Int)
;                   Int))
;             (store base "s" one)
;             (
;               (as
;                  const
;                  (Array String Int))
;               0)))
;         aXf)
;      :named
;      given-9.1)
;   (!
;      (not
;         (=
;            (
;              (_
;                 map
;                 (+
;                    (Int Int)
;                    Int))
;              (store base "m" one)
;              (
;                (as
;                   const
;                   (Array String Int))
;                0))
;            (
;              (_
;                 map
;                 (+
;                    (Int Int)
;                    Int))
;              aXf
;              (
;                (_
;                   map
;                   (+
;                      (Int Int)
;                      Int))
;                (store base "s" one)
;                (
;                  (as
;                     const
;                     (Array String Int))
;                  0)))))
;      :named
;      wanted-9))
(get-unsat-core)
; (given-9.1 wanted-9)
(pop 1)
(echo "solver-finish-cycle-9")
(echo "solver-start-cycle-10")
(echo "solver-finish-cycle-10")
(exit)
